# Solution for model r10_t27_m6_9 Batch Number: 1
# Finished Task: 26 / 27
# Makespan: 653.0, Total Distance: 290.0, Total Time: 24.3685
# R O S F Batch
0 0 15 0.0 0.0 -1
1 1 10 0.0 0.0 -1
2 2 11 0.0 0.0 -1
3 3 -1 0.0 0.0 -1
4 4 32 0.0 0.0 -1
5 5 34 0.0 0.0 -1
6 6 12 0.0 0.0 -1
7 7 17 0.0 0.0 -1
8 8 31 0.0 0.0 -1
9 9 30 0.0 0.0 -1
10 1 25 402.0 437.0 0
11 2 35 136.0 163.0 0
12 6 14 393.0 417.0 0
13 8 -1 542.0 579.0 0
14 6 -1 531.0 558.0 0
15 0 28 303.0 328.0 0
16 -1 -1 -1.0 -1.0 0
17 7 19 417.0 437.0 0
18 4 -1 605.0 639.0 0
19 7 -1 558.0 579.0 0
20 0 23 579.0 614.0 0
21 0 20 545.0 569.0 0
22 5 -1 532.0 552.0 0
23 0 -1 614.0 653.0 0
24 4 18 552.0 588.0 0
25 1 -1 437.0 459.0 0
26 9 33 434.0 473.0 0
27 4 24 413.0 441.0 0
28 0 21 506.0 531.0 0
29 9 26 146.0 176.0 0
30 9 29 103.0 133.0 0
31 8 13 493.0 531.0 0
32 4 36 314.0 343.0 0
33 9 -1 481.0 520.0 0
34 5 22 459.0 493.0 0
35 2 -1 343.0 370.0 0
36 4 27 364.0 399.0 0
